100
1000
198
198
197
197
197
197
196
195
195
195
194
192
192
192
191
191
190
190
190
188
188
187
187
187
187
186
185
185
184
184
183
182
181
181
181
180
180
180
179
179
178
178
178
177
177
177
177
177
176
176
175
175
175
174
173
173
173
173
172
171
170
169
169
167
167
166
166
166
165
165
165
165
165
164
164
164
164
164
163
162
161
161
160
159
159
159
158
158
157
157
157
155
154
154
154
153
153
152
150
150
